# 77777
param k := 6;
param n := 60;
param s := 1;
set E :=  (0,3) (0,4) (0,20) (0,28) (1,8) (1,43) (2,29) (2,45) (3,21) (3,37) (3,55) (4,25) (5,26) (5,59) (6,8) (6,23) (6,51) (7,9) (7,12) (7,38) (10,54) (10,57) (10,58) (11,59) (12,16) (12,32) (13,57) (14,50) (15,26) (16,19) (16,40) (17,51) (18,32) (21,39) (22,51) (24,47) (26,44) (27,37) (29,31) (29,40) (30,33) (30,38) (31,37) (33,35) (33,43) (34,42) (34,46) (35,41) (36,46) (38,53) (39,49) (39,59) (40,56) (42,48) (47,50) (47,55) (48,55) (52,57) (54,55);